NAME : cvrp-A-G-150-3.1619.tour
COMMENT : Length = 1619
COMMENT : Found by LKH [Keld Helsgaun] Thu May 17 22:42:31 2018
TYPE : TOUR
DIMENSION : 31
TOUR_SECTION
1
9
7
5
6
13
25
2
11
12
4
8
17
20
22
18
19
27
23
31
30
21
24
16
10
15
3
14
28
29
26
-1
EOF
